25
162 354
218 382
218 358
201 370
214 371
224 370
210 382
104 354
126 338
119 340
129 349
126 347
125 346
116 355
126 335
125 355
119 357
115 341
153 351
175 363
180 360
159 331
188 357
152 349
215 389